NAME : berlin52.tsp
COMMENT : Optimal tour for berlin52.tsp
TYPE : TOUR
DIMENSION : 52
Total Length: 7914.7907788661605
TOUR_SECTION
1
22
32
45
19
41
8
9
10
43
33
51
11
52
14
13
47
26
27
28
12
25
4
6
15
5
24
48
38
40
37
46
16
29
30
2
7
42
21
17
3
18
31
23
20
50
44
34
35
49
36
39
-1
EOF
